JulietBench/Juliet_Based_Patch_Bench/linux/CWE-190-Integer-Overflow-or-Wraparound/CVE_2016_9084_05692d7005a364add85c6e25a6c4447ce08f913a/Resultvfio_pci_ioctl_patch2EQ.smt2
; benchmark generated from python API
(set-info :status unknown)
(declare-fun R () (_ BitVec 32))
(declare-fun rcx () (_ BitVec 64))
(declare-fun rdx () (_ BitVec 64))
(declare-fun rsi () (_ BitVec 64))
(declare-fun rdi () (_ BitVec 64))
(assert
 (let (($x840 (= (_ bv0 32) R)))
 (let (($x93 (= (_ bv4294967274 32) R)))
 (let ((?x12 ((_ extract 31 0) rcx)))
 (let ((?x13 ((_ zero_extend 32) ?x12)))
 (let (($x46 (bvugt (_ bv50 64) ?x13)))
 (let (($x2112 (and $x46 $x93)))
 (let (($x17 (bvule (_ bv50 64) ?x13)))
 (let ((?x10 ((_ extract 31 0) rdx)))
 (let ((?x65 (bvand ?x10 (_ bv4294967232 32))))
 (let (($x101 (and (distinct (_ bv0 32) ?x65) true)))
 (let (($x26 (and $x101 $x17 $x93)))
 (let (($x79 (= (_ bv0 32) ?x65)))
 (let ((?x124 ((_ extract 7 0) rdx)))
 (let ((?x128 (bvand ?x124 (_ bv1 8))))
 (let (($x192 (and (distinct (_ bv0 8) ?x128) true)))
 (let (($x797 (and $x192 $x79 $x17 $x840)))
 (let (($x114 (= (_ bv0 8) ?x128)))
 (let ((?x224 (bvand ?x124 (_ bv2 8))))
 (let (($x225 (= (_ bv0 8) ?x224)))
 (let ((?x233 (bvand ?x124 (_ bv4 8))))
 (let (($x253 (= (_ bv0 8) ?x233)))
 (let (($x829 (and $x253 $x225 $x114 $x79 $x17 $x93)))
 (let (($x257 (and (distinct (_ bv0 8) ?x224) true)))
 (let ((?x8 ((_ extract 31 0) rsi)))
 (let ((?x267 ((_ zero_extend 32) ?x8)))
 (let ((?x282 (bvmul (_ bv1 64) ?x267)))
 (let ((?x303 (bvsub ?x13 (_ bv50 64))))
 (let (($x285 (bvult ?x303 ?x282)))
 (let (($x830 (and $x285 $x257 $x114 $x79 $x17 $x93)))
 (let (($x302 (and (distinct (_ bv0 8) ?x233) true)))
 (let ((?x649 (bvmul (_ bv4 64) ?x267)))
 (let (($x651 (bvult ?x303 ?x649)))
 (let (($x835 (and $x651 $x302 $x225 $x114 $x79 $x17 $x93)))
 (let (($x643 (bvuge ?x303 ?x282)))
 (let ((?x6 ((_ extract 31 0) rdi)))
 (let (($x801 (bvuge ?x6 (_ bv50 32))))
 (let (($x836 (and $x801 $x643 $x257 $x114 $x79 $x17 $x93)))
 (let (($x785 (bvuge ?x303 ?x649)))
 (let (($x837 (and $x801 $x785 $x302 $x225 $x114 $x79 $x17 $x93)))
 (let (($x791 (bvult ?x6 (_ bv50 32))))
 (let ((?x815 (bvadd ?x6 ?x8)))
 (let (($x822 (bvule ?x815 (_ bv50 32))))
 (let (($x838 (and $x822 $x791 $x643 $x257 $x114 $x79 $x17 $x840)))
 (let (($x844 (bvugt ?x815 (_ bv50 32))))
 (let (($x839 (and $x844 $x791 $x643 $x257 $x114 $x79 $x17 $x93)))
 (let (($x1431 (and $x822 $x791 $x785 $x302 $x225 $x114 $x79 $x17 $x840)))
 (let (($x804 (and $x844 $x791 $x785 $x302 $x225 $x114 $x79 $x17 $x93)))
 (let (($x1552 (or $x804 $x1431 $x839 $x838 $x837 $x836 $x835 $x830 $x829 $x797 $x26 $x2112)))
 (and $x1552 $x840))))))))))))))))))))))))))))))))))))))))))))))))))
(check-sat)
